p edge 1061 996
e 1 2
e 1 3
e 1 4
e 1 5
e 1 6
e 1 7
e 1 8
e 1 9
e 1 10
e 1 11
e 1 12
e 1 13
e 1 14
e 1 15
e 1 16
e 1 17
e 1 18
e 19 20
e 19 21
e 19 22
e 19 23
e 19 24
e 19 25
e 19 26
e 19 27
e 19 28
e 19 29
e 19 30
e 19 31
e 19 32
e 19 33
e 34 35
e 34 36
e 34 37
e 34 38
e 34 39
e 34 40
e 34 41
e 34 42
e 34 43
e 34 44
e 34 45
e 34 46
e 34 47
e 34 48
e 34 49
e 34 50
e 34 51
e 52 53
e 52 54
e 52 55
e 52 56
e 52 57
e 52 58
e 52 59
e 52 60
e 52 61
e 52 62
e 52 63
e 52 64
e 65 66
e 65 67
e 65 68
e 65 69
e 65 70
e 65 71
e 65 72
e 65 73
e 65 74
e 65 75
e 65 76
e 77 78
e 77 79
e 77 80
e 77 81
e 77 82
e 77 83
e 77 84
e 77 85
e 77 86
e 77 87
e 77 88
e 77 89
e 77 90
e 77 91
e 77 92
e 77 93
e 77 94
e 77 95
e 77 96
e 77 97
e 98 99
e 98 100
e 98 101
e 98 102
e 98 103
e 98 104
e 98 105
e 98 106
e 98 107
e 98 108
e 98 109
e 98 110
e 98 111
e 98 112
e 98 113
e 114 115
e 114 116
e 114 117
e 114 118
e 114 119
e 114 120
e 114 121
e 114 122
e 114 123
e 114 124
e 114 125
e 114 126
e 127 128
e 127 129
e 127 130
e 127 131
e 127 132
e 127 133
e 127 134
e 127 135
e 127 136
e 127 137
e 127 138
e 127 139
e 127 140
e 127 141
e 127 142
e 127 143
e 144 145
e 144 146
e 144 147
e 144 148
e 144 149
e 144 150
e 144 151
e 144 152
e 144 153
e 144 154
e 144 155
e 144 156
e 144 157
e 144 158
e 144 159
e 144 160
e 144 161
e 144 162
e 144 163
e 164 165
e 164 166
e 164 167
e 164 168
e 164 169
e 164 170
e 164 171
e 164 172
e 164 173
e 164 174
e 164 175
e 164 176
e 164 177
e 164 178
e 164 179
e 164 180
e 164 181
e 182 183
e 182 184
e 182 185
e 182 186
e 182 187
e 182 188
e 182 189
e 182 190
e 182 191
e 182 192
e 182 193
e 182 194
e 182 195
e 182 196
e 182 197
e 182 198
e 182 199
e 182 200
e 182 201
e 182 202
e 203 204
e 203 205
e 203 206
e 203 207
e 203 208
e 203 209
e 203 210
e 203 211
e 203 212
e 203 213
e 203 214
e 203 215
e 216 217
e 216 218
e 216 219
e 216 220
e 216 221
e 216 222
e 216 223
e 216 224
e 216 225
e 216 226
e 227 228
e 227 229
e 227 230
e 227 231
e 227 232
e 227 233
e 227 234
e 227 235
e 227 236
e 227 237
e 227 238
e 227 239
e 227 240
e 227 241
e 227 242
e 227 243
e 227 244
e 227 245
e 227 246
e 227 247
e 248 249
e 248 250
e 248 251
e 248 252
e 248 253
e 248 254
e 248 255
e 248 256
e 248 257
e 248 258
e 248 259
e 248 260
e 248 261
e 248 262
e 248 263
e 248 264
e 248 265
e 248 266
e 248 267
e 248 268
e 269 270
e 269 271
e 269 272
e 269 273
e 269 274
e 269 275
e 269 276
e 269 277
e 269 278
e 269 279
e 269 280
e 269 281
e 269 282
e 269 283
e 284 285
e 284 286
e 284 287
e 284 288
e 284 289
e 284 290
e 284 291
e 284 292
e 284 293
e 284 294
e 295 296
e 295 297
e 295 298
e 295 299
e 295 300
e 295 301
e 295 302
e 295 303
e 295 304
e 295 305
e 295 306
e 295 307
e 295 308
e 295 309
e 295 310
e 295 311
e 295 312
e 295 313
e 295 314
e 315 316
e 315 317
e 315 318
e 315 319
e 315 320
e 315 321
e 315 322
e 315 323
e 315 324
e 315 325
e 315 326
e 315 327
e 315 328
e 315 329
e 315 330
e 315 331
e 315 332
e 315 333
e 334 335
e 334 336
e 334 337
e 334 338
e 334 339
e 334 340
e 334 341
e 334 342
e 334 343
e 334 344
e 334 345
e 334 346
e 334 347
e 334 348
e 334 349
e 334 350
e 334 351
e 334 352
e 334 353
e 354 355
e 354 356
e 354 357
e 354 358
e 354 359
e 354 360
e 354 361
e 354 362
e 354 363
e 354 364
e 354 365
e 354 366
e 354 367
e 354 368
e 354 369
e 354 370
e 354 371
e 354 372
e 373 374
e 373 375
e 373 376
e 373 377
e 373 378
e 373 379
e 373 380
e 373 381
e 373 382
e 373 383
e 373 384
e 373 385
e 373 386
e 373 387
e 373 388
e 373 389
e 373 390
e 373 391
e 392 393
e 392 394
e 392 395
e 392 396
e 392 397
e 392 398
e 392 399
e 392 400
e 392 401
e 392 402
e 392 403
e 392 404
e 392 405
e 392 406
e 392 407
e 392 408
e 392 409
e 392 410
e 392 411
e 412 413
e 412 414
e 412 415
e 412 416
e 412 417
e 412 418
e 412 419
e 412 420
e 412 421
e 412 422
e 412 423
e 412 424
e 425 426
e 425 427
e 425 428
e 425 429
e 425 430
e 425 431
e 425 432
e 425 433
e 425 434
e 425 435
e 425 436
e 425 437
e 425 438
e 425 439
e 425 440
e 425 441
e 442 443
e 442 444
e 442 445
e 442 446
e 442 447
e 442 448
e 442 449
e 442 450
e 442 451
e 442 452
e 442 453
e 442 454
e 442 455
e 442 456
e 457 458
e 457 459
e 457 460
e 457 461
e 457 462
e 457 463
e 457 464
e 457 465
e 457 466
e 457 467
e 468 469
e 468 470
e 468 471
e 468 472
e 468 473
e 468 474
e 468 475
e 468 476
e 468 477
e 468 478
e 468 479
e 468 480
e 468 481
e 468 482
e 468 483
e 468 484
e 468 485
e 468 486
e 468 487
e 468 488
e 489 490
e 489 491
e 489 492
e 489 493
e 489 494
e 489 495
e 489 496
e 489 497
e 489 498
e 489 499
e 489 500
e 489 501
e 489 502
e 503 504
e 503 505
e 503 506
e 503 507
e 503 508
e 503 509
e 503 510
e 503 511
e 503 512
e 503 513
e 503 514
e 515 516
e 515 517
e 515 518
e 515 519
e 515 520
e 515 521
e 515 522
e 515 523
e 515 524
e 515 525
e 515 526
e 515 527
e 515 528
e 515 529
e 515 530
e 515 531
e 532 533
e 532 534
e 532 535
e 532 536
e 532 537
e 532 538
e 532 539
e 532 540
e 532 541
e 532 542
e 532 543
e 544 545
e 544 546
e 544 547
e 544 548
e 544 549
e 544 550
e 544 551
e 544 552
e 544 553
e 544 554
e 544 555
e 544 556
e 544 557
e 544 558
e 559 560
e 559 561
e 559 562
e 559 563
e 559 564
e 559 565
e 559 566
e 559 567
e 559 568
e 559 569
e 559 570
e 559 571
e 559 572
e 559 573
e 559 574
e 559 575
e 559 576
e 559 577
e 559 578
e 559 579
e 580 581
e 580 582
e 580 583
e 580 584
e 580 585
e 580 586
e 580 587
e 580 588
e 580 589
e 580 590
e 580 591
e 580 592
e 580 593
e 580 594
e 580 595
e 580 596
e 580 597
e 580 598
e 580 599
e 580 600
e 601 602
e 601 603
e 601 604
e 601 605
e 601 606
e 601 607
e 601 608
e 601 609
e 601 610
e 601 611
e 601 612
e 613 614
e 613 615
e 613 616
e 613 617
e 613 618
e 613 619
e 613 620
e 613 621
e 613 622
e 613 623
e 613 624
e 613 625
e 613 626
e 613 627
e 613 628
e 613 629
e 613 630
e 613 631
e 613 632
e 633 634
e 633 635
e 633 636
e 633 637
e 633 638
e 633 639
e 633 640
e 633 641
e 633 642
e 633 643
e 633 644
e 633 645
e 633 646
e 647 648
e 647 649
e 647 650
e 647 651
e 647 652
e 647 653
e 647 654
e 647 655
e 647 656
e 647 657
e 647 658
e 647 659
e 647 660
e 647 661
e 647 662
e 647 663
e 647 664
e 647 665
e 647 666
e 667 668
e 667 669
e 667 670
e 667 671
e 667 672
e 667 673
e 667 674
e 667 675
e 667 676
e 667 677
e 667 678
e 679 680
e 679 681
e 679 682
e 679 683
e 679 684
e 679 685
e 679 686
e 679 687
e 679 688
e 679 689
e 679 690
e 679 691
e 679 692
e 693 694
e 693 695
e 693 696
e 693 697
e 693 698
e 693 699
e 693 700
e 693 701
e 693 702
e 693 703
e 693 704
e 693 705
e 693 706
e 707 708
e 707 709
e 707 710
e 707 711
e 707 712
e 707 713
e 707 714
e 707 715
e 707 716
e 707 717
e 707 718
e 707 719
e 720 721
e 720 722
e 720 723
e 720 724
e 720 725
e 720 726
e 720 727
e 720 728
e 720 729
e 720 730
e 720 731
e 720 732
e 720 733
e 720 734
e 720 735
e 720 736
e 720 737
e 720 738
e 720 739
e 740 741
e 740 742
e 740 743
e 740 744
e 740 745
e 740 746
e 740 747
e 740 748
e 740 749
e 740 750
e 740 751
e 740 752
e 740 753
e 740 754
e 740 755
e 740 756
e 740 757
e 740 758
e 759 760
e 759 761
e 759 762
e 759 763
e 759 764
e 759 765
e 759 766
e 759 767
e 759 768
e 759 769
e 759 770
e 759 771
e 759 772
e 759 773
e 759 774
e 759 775
e 776 777
e 776 778
e 776 779
e 776 780
e 776 781
e 776 782
e 776 783
e 776 784
e 776 785
e 776 786
e 776 787
e 776 788
e 776 789
e 776 790
e 776 791
e 776 792
e 776 793
e 776 794
e 795 796
e 795 797
e 795 798
e 795 799
e 795 800
e 795 801
e 795 802
e 795 803
e 795 804
e 795 805
e 795 806
e 795 807
e 795 808
e 795 809
e 795 810
e 795 811
e 795 812
e 813 814
e 813 815
e 813 816
e 813 817
e 813 818
e 813 819
e 813 820
e 813 821
e 813 822
e 813 823
e 813 824
e 813 825
e 813 826
e 813 827
e 813 828
e 813 829
e 813 830
e 831 832
e 831 833
e 831 834
e 831 835
e 831 836
e 831 837
e 831 838
e 831 839
e 831 840
e 831 841
e 831 842
e 831 843
e 831 844
e 831 845
e 846 847
e 846 848
e 846 849
e 846 850
e 846 851
e 846 852
e 846 853
e 846 854
e 846 855
e 846 856
e 846 857
e 858 859
e 858 860
e 858 861
e 858 862
e 858 863
e 858 864
e 858 865
e 858 866
e 858 867
e 858 868
e 858 869
e 870 871
e 870 872
e 870 873
e 870 874
e 870 875
e 870 876
e 870 877
e 870 878
e 870 879
e 870 880
e 870 881
e 870 882
e 870 883
e 870 884
e 870 885
e 886 887
e 886 888
e 886 889
e 886 890
e 886 891
e 886 892
e 886 893
e 886 894
e 886 895
e 886 896
e 897 898
e 897 899
e 897 900
e 897 901
e 897 902
e 897 903
e 897 904
e 897 905
e 897 906
e 897 907
e 897 908
e 897 909
e 897 910
e 897 911
e 912 913
e 912 914
e 912 915
e 912 916
e 912 917
e 912 918
e 912 919
e 912 920
e 912 921
e 912 922
e 912 923
e 912 924
e 912 925
e 912 926
e 912 927
e 912 928
e 929 930
e 929 931
e 929 932
e 929 933
e 929 934
e 929 935
e 929 936
e 929 937
e 929 938
e 929 939
e 940 941
e 940 942
e 940 943
e 940 944
e 940 945
e 940 946
e 940 947
e 940 948
e 940 949
e 940 950
e 940 951
e 940 952
e 940 953
e 940 954
e 940 955
e 940 956
e 940 957
e 940 958
e 940 959
e 960 961
e 960 962
e 960 963
e 960 964
e 960 965
e 960 966
e 960 967
e 960 968
e 960 969
e 960 970
e 960 971
e 960 972
e 960 973
e 960 974
e 960 975
e 960 976
e 960 977
e 960 978
e 960 979
e 980 981
e 980 982
e 980 983
e 980 984
e 980 985
e 980 986
e 980 987
e 980 988
e 980 989
e 980 990
e 980 991
e 980 992
e 980 993
e 980 994
e 980 995
e 980 996
e 980 997
e 998 999
e 998 1000
e 998 1001
e 998 1002
e 998 1003
e 998 1004
e 998 1005
e 998 1006
e 998 1007
e 998 1008
e 998 1009
e 998 1010
e 998 1011
e 998 1012
e 998 1013
e 998 1014
e 998 1015
e 998 1016
e 1017 1018
e 1017 1019
e 1017 1020
e 1017 1021
e 1017 1022
e 1017 1023
e 1017 1024
e 1017 1025
e 1017 1026
e 1017 1027
e 1017 1028
e 1017 1029
e 1017 1030
e 1017 1031
e 1017 1032
e 1017 1033
e 1034 1035
e 1034 1036
e 1034 1037
e 1034 1038
e 1034 1039
e 1034 1040
e 1034 1041
e 1034 1042
e 1034 1043
e 1034 1044
e 1034 1045
e 1034 1046
e 1034 1047
e 1034 1048
e 1049 1050
e 1049 1051
e 1049 1052
e 1049 1053
e 1049 1054
e 1049 1055
e 1049 1056
e 1049 1057
e 1049 1058
e 1049 1059
e 1049 1060
e 1049 1061
